
Gurobi 9.5.2 (mac64[arm]) logging started Fri Apr 28 17:24:18 2023

Set parameter LogFile to value "Java/output/iterative_model_2_machine/scenario_seed_1_nJob_20_machineCount_2/mip_increment_1/log.txt"
Gurobi Optimizer version 9.5.2 build v9.5.2rc0 (mac64[arm])
Thread count: 8 physical cores, 8 logical processors, using up to 8 threads
Optimize a model with 940 rows, 2584 columns and 24570 nonzeros
Model fingerprint: 0x4a20f398
Variable types: 0 continuous, 2584 integer (2584 binary)
Coefficient statistics:
  Matrix range     [1e+00, 9e+01]
  Objective range  [8e+01, 7e+05]
  Bounds range     [1e+00, 1e+00]
  RHS range        [1e+00, 1e+00]
Found heuristic solution: objective 2426464.0000
Presolve removed 404 rows and 966 columns
Presolve time: 0.05s
Presolved: 536 rows, 1618 columns, 14815 nonzeros
Variable types: 0 continuous, 1618 integer (1618 binary)

Root relaxation: objective 9.568000e+03, 47 iterations, 0.00 seconds (0.00 work units)

    Nodes    |    Current Node    |     Objective Bounds      |     Work
 Expl Unexpl |  Obj  Depth IntInf | Incumbent    BestBd   Gap | It/Node Time

     0     0 9568.00000    0    2 2426464.00 9568.00000   100%     -    0s
H    0     0                    9584.0000000 9568.00000  0.17%     -    0s
H    0     0                    9568.0000000 9568.00000  0.00%     -    0s
     0     0 9568.00000    0    2 9568.00000 9568.00000  0.00%     -    0s

Explored 1 nodes (47 simplex iterations) in 0.05 seconds (0.13 work units)
Thread count was 8 (of 8 available processors)

Solution count 3: 9568 9584 2.42646e+06 

Optimal solution found (tolerance 1.00e-04)
Best objective 9.568000000000e+03, best bound 9.568000000000e+03, gap 0.0000%

Gurobi 9.5.2 (mac64[arm]) logging started Fri Apr 28 17:24:18 2023

Set parameter LogFile to value "Java/output/iterative_model_2_machine/scenario_seed_1_nJob_20_machineCount_2/mip_increment_1/log.txt"
Gurobi Optimizer version 9.5.2 build v9.5.2rc0 (mac64[arm])
Thread count: 8 physical cores, 8 logical processors, using up to 8 threads
Optimize a model with 944 rows, 2167 columns and 23740 nonzeros
Model fingerprint: 0x57da825a
Variable types: 0 continuous, 2167 integer (2167 binary)
Coefficient statistics:
  Matrix range     [1e+00, 9e+01]
  Objective range  [1e+02, 1e+05]
  Bounds range     [1e+00, 1e+00]
  RHS range        [1e+00, 1e+00]
Found heuristic solution: objective 259456.00000
Presolve removed 566 rows and 870 columns
Presolve time: 0.04s
Presolved: 378 rows, 1297 columns, 13363 nonzeros
Variable types: 0 continuous, 1297 integer (1297 binary)
Found heuristic solution: objective 183296.00000

Root relaxation: objective 4.029863e+04, 118 iterations, 0.00 seconds (0.00 work units)

    Nodes    |    Current Node    |     Objective Bounds      |     Work
 Expl Unexpl |  Obj  Depth IntInf | Incumbent    BestBd   Gap | It/Node Time

     0     0 40298.6316    0   23 183296.000 40298.6316  78.0%     -    0s
H    0     0                    94548.000000 40298.6316  57.4%     -    0s
H    0     0                    93624.000000 40298.6316  57.0%     -    0s
H    0     0                    65060.000000 40298.6316  38.1%     -    0s
H    0     0                    41696.000000 41424.5405  0.65%     -    0s
     0     0     cutoff    0      41696.0000 41696.0000  0.00%     -    0s

Cutting planes:
  Gomory: 7
  Cover: 5
  Clique: 9
  MIR: 2
  StrongCG: 4
  GUB cover: 1
  Zero half: 6
  RLT: 3

Explored 1 nodes (253 simplex iterations) in 0.06 seconds (0.11 work units)
Thread count was 8 (of 8 available processors)

Solution count 6: 41696 65060 93624 ... 259456

Optimal solution found (tolerance 1.00e-04)
Best objective 4.169600000000e+04, best bound 4.169600000000e+04, gap 0.0000%

Gurobi 9.5.2 (mac64[arm]) logging started Fri Apr 28 17:24:18 2023

Set parameter LogFile to value "Java/output/iterative_model_2_machine/scenario_seed_1_nJob_20_machineCount_2/mip_increment_1/log.txt"
Gurobi Optimizer version 9.5.2 build v9.5.2rc0 (mac64[arm])
Thread count: 8 physical cores, 8 logical processors, using up to 8 threads
Optimize a model with 952 rows, 1992 columns and 20132 nonzeros
Model fingerprint: 0xd0ec6024
Variable types: 0 continuous, 1992 integer (1992 binary)
Coefficient statistics:
  Matrix range     [1e+00, 9e+01]
  Objective range  [3e+01, 2e+04]
  Bounds range     [1e+00, 1e+00]
  RHS range        [1e+00, 1e+00]
Presolve removed 623 rows and 854 columns
Presolve time: 0.02s
Presolved: 329 rows, 1138 columns, 10742 nonzeros
Variable types: 0 continuous, 1138 integer (1138 binary)
Found heuristic solution: objective 18341.000000

Root relaxation: objective 1.138214e+04, 161 iterations, 0.00 seconds (0.00 work units)

    Nodes    |    Current Node    |     Objective Bounds      |     Work
 Expl Unexpl |  Obj  Depth IntInf | Incumbent    BestBd   Gap | It/Node Time

     0     0 11382.1429    0    9 18341.0000 11382.1429  37.9%     -    0s
H    0     0                    11386.000000 11382.1429  0.03%     -    0s
     0     0     cutoff    0      11386.0000 11386.0000  0.00%     -    0s

Cutting planes:
  Cover: 1
  Clique: 1
  GUB cover: 1
  RLT: 1

Explored 1 nodes (330 simplex iterations) in 0.04 seconds (0.07 work units)
Thread count was 8 (of 8 available processors)

Solution count 2: 11386 18341 

Optimal solution found (tolerance 1.00e-04)
Best objective 1.138600000000e+04, best bound 1.138600000000e+04, gap 0.0000%

Gurobi 9.5.2 (mac64[arm]) logging started Fri Apr 28 17:24:19 2023

Set parameter LogFile to value "Java/output/iterative_model_2_machine/scenario_seed_1_nJob_20_machineCount_2/mip_increment_1/log.txt"
Gurobi Optimizer version 9.5.2 build v9.5.2rc0 (mac64[arm])
Thread count: 8 physical cores, 8 logical processors, using up to 8 threads
Optimize a model with 1012 rows, 9120 columns and 95393 nonzeros
Model fingerprint: 0x6da72ead
Variable types: 0 continuous, 9120 integer (9120 binary)
Coefficient statistics:
  Matrix range     [1e+00, 9e+01]
  Objective range  [5e+00, 7e+05]
  Bounds range     [1e+00, 1e+00]
  RHS range        [1e+00, 1e+00]

Warning: Completing partial solution with 9060 unfixed non-continuous variables out of 9120
User MIP start produced solution with objective 55240 (0.01s)
Loaded user MIP start with objective 55240

Presolve removed 150 rows and 2356 columns
Presolve time: 0.10s
Presolved: 862 rows, 6764 columns, 70441 nonzeros
Variable types: 0 continuous, 6764 integer (6764 binary)

Root relaxation: objective 4.218917e+04, 2876 iterations, 0.10 seconds (0.18 work units)

    Nodes    |    Current Node    |     Objective Bounds      |     Work
 Expl Unexpl |  Obj  Depth IntInf | Incumbent    BestBd   Gap | It/Node Time

     0     0 42189.1739    0  179 55240.0000 42189.1739  23.6%     -    0s
     0     0 43833.2758    0  196 55240.0000 43833.2758  20.6%     -    0s
     0     0 43948.5311    0  197 55240.0000 43948.5311  20.4%     -    0s
     0     0 43949.4780    0  203 55240.0000 43949.4780  20.4%     -    0s
     0     0 44952.0767    0  219 55240.0000 44952.0767  18.6%     -    0s
     0     0 44952.0767    0  157 55240.0000 44952.0767  18.6%     -    0s
     0     0 44952.0767    0  236 55240.0000 44952.0767  18.6%     -    1s
H    0     0                    52422.000000 44952.0767  14.2%     -    1s
     0     0 45006.4190    0  223 52422.0000 45006.4190  14.1%     -    1s
     0     0 45054.1826    0  213 52422.0000 45054.1826  14.1%     -    1s
     0     0 45054.1826    0  214 52422.0000 45054.1826  14.1%     -    1s
     0     0 45605.7425    0  261 52422.0000 45605.7425  13.0%     -    1s
     0     0 45695.1204    0  263 52422.0000 45695.1204  12.8%     -    1s
     0     0 45695.2166    0  266 52422.0000 45695.2166  12.8%     -    1s
     0     0 46018.9558    0  286 52422.0000 46018.9558  12.2%     -    1s
     0     0 46039.2831    0  234 52422.0000 46039.2831  12.2%     -    1s
     0     0 46052.0481    0  254 52422.0000 46052.0481  12.2%     -    1s
     0     0 46052.0518    0  260 52422.0000 46052.0518  12.2%     -    1s
     0     0 46268.5838    0  278 52422.0000 46268.5838  11.7%     -    1s
     0     0 46317.9964    0  266 52422.0000 46317.9964  11.6%     -    1s
     0     0 46326.4210    0  290 52422.0000 46326.4210  11.6%     -    1s
     0     0 46326.4450    0  304 52422.0000 46326.4450  11.6%     -    1s
     0     0 46352.1600    0  311 52422.0000 46352.1600  11.6%     -    1s
     0     0 46352.3492    0  310 52422.0000 46352.3492  11.6%     -    1s
     0     0 46382.3920    0  300 52422.0000 46382.3920  11.5%     -    1s
     0     0 46383.9126    0  295 52422.0000 46383.9126  11.5%     -    2s
     0     0 46385.3250    0  311 52422.0000 46385.3250  11.5%     -    2s
     0     0 46385.3250    0  283 52422.0000 46385.3250  11.5%     -    2s
H    0     0                    52313.000000 46389.9211  11.3%     -    2s
     0     2 46389.9211    0  278 52313.0000 46389.9211  11.3%     -    2s
H    9    16                    52157.000000 46564.8979  10.7%   726    2s
H   63    54                    48085.000000 46975.2870  2.31%   591    3s
H  113    15                    48022.000000 46975.2870  2.18%   401    3s

Cutting planes:
  Gomory: 3
  Cover: 9
  Clique: 43
  MIR: 51
  StrongCG: 34
  GUB cover: 78
  Zero half: 12
  RLT: 7

Explored 161 nodes (69045 simplex iterations) in 3.50 seconds (6.78 work units)
Thread count was 8 (of 8 available processors)

Solution count 6: 48022 48085 52157 ... 55240

Optimal solution found (tolerance 1.00e-04)
Best objective 4.802200000000e+04, best bound 4.802200000000e+04, gap 0.0000%
